\ LP format - for model browsing. Use MPS format to capture full model detail.
Minimize
  0 node_1_0 + 0 node_2_0 + 0 node_2_1 + 0 node_2_2 + 0 node_2_3
   + 0 node_2_4 + 0 node_2_5 + 0 node_2_6 + 0 node_2_7 + 0 node_2_8
   + 0 node_2_9 + 0 node_2_10 + 0 node_3_0 + 0 node_3_1 + 0 node_3_2
   + 0 node_3_3 + 0 node_3_4 + 0 node_3_5 + 0 node_3_6 + 0 node_3_7
   + 0 node_3_8 + 0 node_3_9 + 0 node_3_10 + 0 node_4_0 + 0 node_4_1
   + 0 node_4_2 + 0 node_4_3 + 0 node_4_4 + 0 node_4_5 + 0 node_4_6
   + 0 node_4_7 + 0 node_4_8 + 0 node_4_9 + 0 node_4_10 + 0 node_5_0
   + 0 node_5_1 + 0 node_5_2 + 0 node_5_3 + 0 node_5_4 + 0 node_5_5
   + 0 node_5_6 + 0 node_5_7 + 0 node_5_8 + 0 node_5_9 + 0 node_5_10
   + 0 node_6_0 + 0 node_6_1 + 0 node_6_2 + 0 node_6_3 + 0 node_6_4
   + 0 node_6_5 + 0 node_6_6 + 0 node_6_7 + 0 node_6_8 + 0 node_6_9
   + 0 node_6_10 + 0 node_7_0 + 0 node_8_0 + 0 node_8_1 + 0 node_8_2
   + 0 node_8_3 + 0 node_8_4 + 0 node_8_5 + 0 node_8_6 + 0 node_8_7
   + 0 node_8_8 + 0 node_8_9 + 0 node_8_10 + 0 node_9_0 + 0 node_9_1
   + 0 node_9_2 + 0 node_9_3 + 0 node_9_4 + 0 node_9_5 + 0 node_9_6
   + 0 node_9_7 + 0 node_9_8 + 0 node_9_9 + 0 node_9_10 + 0 node_10_0
   + 0 node_10_1 + 0 node_10_2 + 0 node_10_3 + 0 node_10_4 + 0 node_10_5
   + 0 node_10_6 + 0 node_10_7 + 0 node_10_8 + 0 node_10_9 + 0 node_10_10
   + 0 node_11_0 + 0 node_11_1 + 0 node_11_2 + 0 node_11_3 + 0 node_11_4
   + 0 node_11_5 + 0 node_11_6 + 0 node_11_7 + 0 node_11_8 + 0 node_11_9
   + 0 node_11_10 + 0 node_12_0 + 0 node_12_1 + 0 node_12_2 + 0 node_12_3
   + 0 node_12_4 + 0 node_12_5 + 0 node_12_6 + 0 node_12_7 + 0 node_12_8
   + 0 node_12_9 + 0 node_12_10 + 0 node_13_0 + 0 node_14_0 + 0 node_14_1
   + 0 node_14_2 + 0 node_14_3 + 0 node_14_4 + 0 node_14_5 + 0 node_14_6
   + 0 node_14_7 + 0 node_14_8 + 0 node_14_9 + 0 node_14_10 + 0 node_15_0
   + 0 node_15_1 + 0 node_15_2 + 0 node_15_3 + 0 node_15_4 + 0 node_15_5
   + 0 node_15_6 + 0 node_15_7 + 0 node_15_8 + 0 node_15_9 + 0 node_15_10
   + 0 node_16_0 + 0 node_16_1 + 0 node_16_2 + 0 node_16_3 + 0 node_16_4
   + 0 node_16_5 + 0 node_16_6 + 0 node_16_7 + 0 node_16_8 + 0 node_16_9
   + 0 node_16_10 + 0 node_17_0 + 0 node_17_1 + 0 node_17_2 + 0 node_17_3
   + 0 node_17_4 + 0 node_17_5 + 0 node_17_6 + 0 node_17_7 + 0 node_17_8
   + 0 node_17_9 + 0 node_17_10 + 0 node_18_0 + 0 node_18_1 + 0 node_18_2
   + 0 node_18_3 + 0 node_18_4 + 0 node_18_5 + 0 node_18_6 + 0 node_18_7
   + 0 node_18_8 + 0 node_18_9 + 0 node_18_10 + 0 node_20_0 + 0 node_21_0
   + 0 node_23_0 + 0 node_24_0 + 0 node_26_0 + 0 node_27_0 + 0 node_29_0
   + 0 node_30_0 + 0 node_32_0 + 0 node_33_0 + 0 node_35_0 + 0 node_36_0
   + 0 node_38_0 + 0 node_39_0 + 0 node_41_0 + 0 node_42_0 + 0 node_44_0
   + 0 node_45_0 + 0 node_47_0 + 0 node_48_0 + 0 node_50_0 + 0 node_51_0
   + 0 node_53_0 + 0 node_54_0
Subject To
 R0: node_0_0 = 1
 R1: node_19_0 = 1
 R2: node_22_0 = 1
 R3: node_25_0 = 1
 R4: node_28_0 = 1
 R5: node_31_0 = 1
 R6: node_34_0 = 1
 R7: node_37_0 = 1
 R8: node_40_0 = 1
 R9: node_43_0 = 1
 R10: node_46_0 = 1
 R11: node_49_0 = 1
 R12: node_52_0 = 1
 R13: - contract_1_0 + contract_1_1 - contract_3_0 = 0
 R14: - contract_1_1 + contract_1_2 - contract_3_1 = 0
 R15: - contract_1_2 + contract_1_3 - contract_3_2 = 0
 R16: - contract_1_3 + contract_1_4 - contract_3_3 = 0
 R17: - contract_1_4 + contract_1_5 - contract_3_4 = 0
 R18: - contract_1_5 + contract_1_6 - contract_3_5 = 0
 R19: - contract_1_6 + contract_1_7 - contract_3_6 = 0
 R20: - contract_1_7 + contract_1_8 - contract_3_7 = 0
 R21: - contract_1_8 + contract_1_9 - contract_3_8 = 0
 R22: - contract_1_9 + contract_1_10 - contract_3_9 = 0
 R23: - contract_2_0 + contract_2_1 - contract_4_0 = 0
 R24: - contract_2_1 + contract_2_2 - contract_4_1 = 0
 R25: - contract_2_2 + contract_2_3 - contract_4_2 = 0
 R26: - contract_2_3 + contract_2_4 - contract_4_3 = 0
 R27: - contract_2_4 + contract_2_5 - contract_4_4 = 0
 R28: - contract_2_5 + contract_2_6 - contract_4_5 = 0
 R29: - contract_2_6 + contract_2_7 - contract_4_6 = 0
 R30: - contract_2_7 + contract_2_8 - contract_4_7 = 0
 R31: - contract_2_8 + contract_2_9 - contract_4_8 = 0
 R32: - contract_2_9 + contract_2_10 - contract_4_9 = 0
 R33: - contract_3_0 + contract_3_1 - contract_5_0 = 0
 R34: - contract_3_1 + contract_3_2 - contract_5_1 = 0
 R35: - contract_3_2 + contract_3_3 - contract_5_2 = 0
 R36: - contract_3_3 + contract_3_4 - contract_5_3 = 0
 R37: - contract_3_4 + contract_3_5 - contract_5_4 = 0
 R38: - contract_3_5 + contract_3_6 - contract_5_5 = 0
 R39: - contract_3_6 + contract_3_7 - contract_5_6 = 0
 R40: - contract_3_7 + contract_3_8 - contract_5_7 = 0
 R41: - contract_3_8 + contract_3_9 - contract_5_8 = 0
 R42: - contract_3_9 + contract_3_10 - contract_5_9 = 0
 R43: - contract_4_0 + contract_4_1 - contract_6_0 = 0
 R44: - contract_4_1 + contract_4_2 - contract_6_1 = 0
 R45: - contract_4_2 + contract_4_3 - contract_6_2 = 0
 R46: - contract_4_3 + contract_4_4 - contract_6_3 = 0
 R47: - contract_4_4 + contract_4_5 - contract_6_4 = 0
 R48: - contract_4_5 + contract_4_6 - contract_6_5 = 0
 R49: - contract_4_6 + contract_4_7 - contract_6_6 = 0
 R50: - contract_4_7 + contract_4_8 - contract_6_7 = 0
 R51: - contract_4_8 + contract_4_9 - contract_6_8 = 0
 R52: - contract_4_9 + contract_4_10 - contract_6_9 = 0
 R53: - contract_7_0 + contract_7_1 - contract_9_0 = 0
 R54: - contract_7_1 + contract_7_2 - contract_9_1 = 0
 R55: - contract_7_2 + contract_7_3 - contract_9_2 = 0
 R56: - contract_7_3 + contract_7_4 - contract_9_3 = 0
 R57: - contract_7_4 + contract_7_5 - contract_9_4 = 0
 R58: - contract_7_5 + contract_7_6 - contract_9_5 = 0
 R59: - contract_7_6 + contract_7_7 - contract_9_6 = 0
 R60: - contract_7_7 + contract_7_8 - contract_9_7 = 0
 R61: - contract_7_8 + contract_7_9 - contract_9_8 = 0
 R62: - contract_7_9 + contract_7_10 - contract_9_9 = 0
 R63: - contract_8_0 + contract_8_1 - contract_10_0 = 0
 R64: - contract_8_1 + contract_8_2 - contract_10_1 = 0
 R65: - contract_8_2 + contract_8_3 - contract_10_2 = 0
 R66: - contract_8_3 + contract_8_4 - contract_10_3 = 0
 R67: - contract_8_4 + contract_8_5 - contract_10_4 = 0
 R68: - contract_8_5 + contract_8_6 - contract_10_5 = 0
 R69: - contract_8_6 + contract_8_7 - contract_10_6 = 0
 R70: - contract_8_7 + contract_8_8 - contract_10_7 = 0
 R71: - contract_8_8 + contract_8_9 - contract_10_8 = 0
 R72: - contract_8_9 + contract_8_10 - contract_10_9 = 0
 R73: - contract_9_0 + contract_9_1 - contract_11_0 = 0
 R74: - contract_9_1 + contract_9_2 - contract_11_1 = 0
 R75: - contract_9_2 + contract_9_3 - contract_11_2 = 0
 R76: - contract_9_3 + contract_9_4 - contract_11_3 = 0
 R77: - contract_9_4 + contract_9_5 - contract_11_4 = 0
 R78: - contract_9_5 + contract_9_6 - contract_11_5 = 0
 R79: - contract_9_6 + contract_9_7 - contract_11_6 = 0
 R80: - contract_9_7 + contract_9_8 - contract_11_7 = 0
 R81: - contract_9_8 + contract_9_9 - contract_11_8 = 0
 R82: - contract_9_9 + contract_9_10 - contract_11_9 = 0
 R83: - contract_10_0 + contract_10_1 - contract_12_0 = 0
 R84: - contract_10_1 + contract_10_2 - contract_12_1 = 0
 R85: - contract_10_2 + contract_10_3 - contract_12_2 = 0
 R86: - contract_10_3 + contract_10_4 - contract_12_3 = 0
 R87: - contract_10_4 + contract_10_5 - contract_12_4 = 0
 R88: - contract_10_5 + contract_10_6 - contract_12_5 = 0
 R89: - contract_10_6 + contract_10_7 - contract_12_6 = 0
 R90: - contract_10_7 + contract_10_8 - contract_12_7 = 0
 R91: - contract_10_8 + contract_10_9 - contract_12_8 = 0
 R92: - contract_10_9 + contract_10_10 - contract_12_9 = 0
 R93: - contract_13_0 + contract_13_1 - contract_15_0 = 0
 R94: - contract_13_1 + contract_13_2 - contract_15_1 = 0
 R95: - contract_13_2 + contract_13_3 - contract_15_2 = 0
 R96: - contract_13_3 + contract_13_4 - contract_15_3 = 0
 R97: - contract_13_4 + contract_13_5 - contract_15_4 = 0
 R98: - contract_13_5 + contract_13_6 - contract_15_5 = 0
 R99: - contract_13_6 + contract_13_7 - contract_15_6 = 0
 R100: - contract_13_7 + contract_13_8 - contract_15_7 = 0
 R101: - contract_13_8 + contract_13_9 - contract_15_8 = 0
 R102: - contract_13_9 + contract_13_10 - contract_15_9 = 0
 R103: - contract_14_0 + contract_14_1 - contract_16_0 = 0
 R104: - contract_14_1 + contract_14_2 - contract_16_1 = 0
 R105: - contract_14_2 + contract_14_3 - contract_16_2 = 0
 R106: - contract_14_3 + contract_14_4 - contract_16_3 = 0
 R107: - contract_14_4 + contract_14_5 - contract_16_4 = 0
 R108: - contract_14_5 + contract_14_6 - contract_16_5 = 0
 R109: - contract_14_6 + contract_14_7 - contract_16_6 = 0
 R110: - contract_14_7 + contract_14_8 - contract_16_7 = 0
 R111: - contract_14_8 + contract_14_9 - contract_16_8 = 0
 R112: - contract_14_9 + contract_14_10 - contract_16_9 = 0
 R113: - contract_15_0 + contract_15_1 - contract_17_0 = 0
 R114: - contract_15_1 + contract_15_2 - contract_17_1 = 0
 R115: - contract_15_2 + contract_15_3 - contract_17_2 = 0
 R116: - contract_15_3 + contract_15_4 - contract_17_3 = 0
 R117: - contract_15_4 + contract_15_5 - contract_17_4 = 0
 R118: - contract_15_5 + contract_15_6 - contract_17_5 = 0
 R119: - contract_15_6 + contract_15_7 - contract_17_6 = 0
 R120: - contract_15_7 + contract_15_8 - contract_17_7 = 0
 R121: - contract_15_8 + contract_15_9 - contract_17_8 = 0
 R122: - contract_15_9 + contract_15_10 - contract_17_9 = 0
 R123: - contract_16_0 + contract_16_1 - contract_18_0 = 0
 R124: - contract_16_1 + contract_16_2 - contract_18_1 = 0
 R125: - contract_16_2 + contract_16_3 - contract_18_2 = 0
 R126: - contract_16_3 + contract_16_4 - contract_18_3 = 0
 R127: - contract_16_4 + contract_16_5 - contract_18_4 = 0
 R128: - contract_16_5 + contract_16_6 - contract_18_5 = 0
 R129: - contract_16_6 + contract_16_7 - contract_18_6 = 0
 R130: - contract_16_7 + contract_16_8 - contract_18_7 = 0
 R131: - contract_16_8 + contract_16_9 - contract_18_8 = 0
 R132: - contract_16_9 + contract_16_10 - contract_18_9 = 0
 GC0: node_3_0 = 1 -> contract_13_0 <= 100
 GC1: node_3_0 = 0 -> contract_13_0 >= 100.0001
 GC2: node_3_1 = 1 -> contract_13_1 <= 100
 GC3: node_3_1 = 0 -> contract_13_1 >= 100.0001
 GC4: node_3_2 = 1 -> contract_13_2 <= 100
 GC5: node_3_2 = 0 -> contract_13_2 >= 100.0001
 GC6: node_3_3 = 1 -> contract_13_3 <= 100
 GC7: node_3_3 = 0 -> contract_13_3 >= 100.0001
 GC8: node_3_4 = 1 -> contract_13_4 <= 100
 GC9: node_3_4 = 0 -> contract_13_4 >= 100.0001
 GC10: node_3_5 = 1 -> contract_13_5 <= 100
 GC11: node_3_5 = 0 -> contract_13_5 >= 100.0001
 GC12: node_3_6 = 1 -> contract_13_6 <= 100
 GC13: node_3_6 = 0 -> contract_13_6 >= 100.0001
 GC14: node_3_7 = 1 -> contract_13_7 <= 100
 GC15: node_3_7 = 0 -> contract_13_7 >= 100.0001
 GC16: node_3_8 = 1 -> contract_13_8 <= 100
 GC17: node_3_8 = 0 -> contract_13_8 >= 100.0001
 GC18: node_3_9 = 1 -> contract_13_9 <= 100
 GC19: node_3_9 = 0 -> contract_13_9 >= 100.0001
 GC20: node_3_10 = 1 -> contract_13_10 <= 100
 GC21: node_3_10 = 0 -> contract_13_10 >= 100.0001
 GC22: node_4_0 = 1 -> - contract_13_0 <= -100
 GC23: node_4_0 = 0 -> - contract_13_0 >= -99.9999
 GC24: node_4_1 = 1 -> - contract_13_1 <= -100
 GC25: node_4_1 = 0 -> - contract_13_1 >= -99.9999
 GC26: node_4_2 = 1 -> - contract_13_2 <= -100
 GC27: node_4_2 = 0 -> - contract_13_2 >= -99.9999
 GC28: node_4_3 = 1 -> - contract_13_3 <= -100
 GC29: node_4_3 = 0 -> - contract_13_3 >= -99.9999
 GC30: node_4_4 = 1 -> - contract_13_4 <= -100
 GC31: node_4_4 = 0 -> - contract_13_4 >= -99.9999
 GC32: node_4_5 = 1 -> - contract_13_5 <= -100
 GC33: node_4_5 = 0 -> - contract_13_5 >= -99.9999
 GC34: node_4_6 = 1 -> - contract_13_6 <= -100
 GC35: node_4_6 = 0 -> - contract_13_6 >= -99.9999
 GC36: node_4_7 = 1 -> - contract_13_7 <= -100
 GC37: node_4_7 = 0 -> - contract_13_7 >= -99.9999
 GC38: node_4_8 = 1 -> - contract_13_8 <= -100
 GC39: node_4_8 = 0 -> - contract_13_8 >= -99.9999
 GC40: node_4_9 = 1 -> - contract_13_9 <= -100
 GC41: node_4_9 = 0 -> - contract_13_9 >= -99.9999
 GC42: node_4_10 = 1 -> - contract_13_10 <= -100
 GC43: node_4_10 = 0 -> - contract_13_10 >= -99.9999
 GC44: node_5_0 = 1 -> contract_14_0 <= 12
 GC45: node_5_0 = 0 -> contract_14_0 >= 12.0001
 GC46: node_5_1 = 1 -> contract_14_1 <= 12
 GC47: node_5_1 = 0 -> contract_14_1 >= 12.0001
 GC48: node_5_2 = 1 -> contract_14_2 <= 12
 GC49: node_5_2 = 0 -> contract_14_2 >= 12.0001
 GC50: node_5_3 = 1 -> contract_14_3 <= 12
 GC51: node_5_3 = 0 -> contract_14_3 >= 12.0001
 GC52: node_5_4 = 1 -> contract_14_4 <= 12
 GC53: node_5_4 = 0 -> contract_14_4 >= 12.0001
 GC54: node_5_5 = 1 -> contract_14_5 <= 12
 GC55: node_5_5 = 0 -> contract_14_5 >= 12.0001
 GC56: node_5_6 = 1 -> contract_14_6 <= 12
 GC57: node_5_6 = 0 -> contract_14_6 >= 12.0001
 GC58: node_5_7 = 1 -> contract_14_7 <= 12
 GC59: node_5_7 = 0 -> contract_14_7 >= 12.0001
 GC60: node_5_8 = 1 -> contract_14_8 <= 12
 GC61: node_5_8 = 0 -> contract_14_8 >= 12.0001
 GC62: node_5_9 = 1 -> contract_14_9 <= 12
 GC63: node_5_9 = 0 -> contract_14_9 >= 12.0001
 GC64: node_5_10 = 1 -> contract_14_10 <= 12
 GC65: node_5_10 = 0 -> contract_14_10 >= 12.0001
 GC66: node_6_0 = 1 -> - contract_14_0 <= -12
 GC67: node_6_0 = 0 -> - contract_14_0 >= -11.9999
 GC68: node_6_1 = 1 -> - contract_14_1 <= -12
 GC69: node_6_1 = 0 -> - contract_14_1 >= -11.9999
 GC70: node_6_2 = 1 -> - contract_14_2 <= -12
 GC71: node_6_2 = 0 -> - contract_14_2 >= -11.9999
 GC72: node_6_3 = 1 -> - contract_14_3 <= -12
 GC73: node_6_3 = 0 -> - contract_14_3 >= -11.9999
 GC74: node_6_4 = 1 -> - contract_14_4 <= -12
 GC75: node_6_4 = 0 -> - contract_14_4 >= -11.9999
 GC76: node_6_5 = 1 -> - contract_14_5 <= -12
 GC77: node_6_5 = 0 -> - contract_14_5 >= -11.9999
 GC78: node_6_6 = 1 -> - contract_14_6 <= -12
 GC79: node_6_6 = 0 -> - contract_14_6 >= -11.9999
 GC80: node_6_7 = 1 -> - contract_14_7 <= -12
 GC81: node_6_7 = 0 -> - contract_14_7 >= -11.9999
 GC82: node_6_8 = 1 -> - contract_14_8 <= -12
 GC83: node_6_8 = 0 -> - contract_14_8 >= -11.9999
 GC84: node_6_9 = 1 -> - contract_14_9 <= -12
 GC85: node_6_9 = 0 -> - contract_14_9 >= -11.9999
 GC86: node_6_10 = 1 -> - contract_14_10 <= -12
 GC87: node_6_10 = 0 -> - contract_14_10 >= -11.9999
 GC100: node_9_0 = 1 -> - contract_13_0 + contract_1_0 <= -2
 GC101: node_9_0 = 0 -> - contract_13_0 + contract_1_0 >= -1.9999
 GC102: node_9_1 = 1 -> - contract_13_1 + contract_1_1 <= -2
 GC103: node_9_1 = 0 -> - contract_13_1 + contract_1_1 >= -1.9999
 GC104: node_9_2 = 1 -> - contract_13_2 + contract_1_2 <= -2
 GC105: node_9_2 = 0 -> - contract_13_2 + contract_1_2 >= -1.9999
 GC106: node_9_3 = 1 -> - contract_13_3 + contract_1_3 <= -2
 GC107: node_9_3 = 0 -> - contract_13_3 + contract_1_3 >= -1.9999
 GC108: node_9_4 = 1 -> - contract_13_4 + contract_1_4 <= -2
 GC109: node_9_4 = 0 -> - contract_13_4 + contract_1_4 >= -1.9999
 GC110: node_9_5 = 1 -> - contract_13_5 + contract_1_5 <= -2
 GC111: node_9_5 = 0 -> - contract_13_5 + contract_1_5 >= -1.9999
 GC112: node_9_6 = 1 -> - contract_13_6 + contract_1_6 <= -2
 GC113: node_9_6 = 0 -> - contract_13_6 + contract_1_6 >= -1.9999
 GC114: node_9_7 = 1 -> - contract_13_7 + contract_1_7 <= -2
 GC115: node_9_7 = 0 -> - contract_13_7 + contract_1_7 >= -1.9999
 GC116: node_9_8 = 1 -> - contract_13_8 + contract_1_8 <= -2
 GC117: node_9_8 = 0 -> - contract_13_8 + contract_1_8 >= -1.9999
 GC118: node_9_9 = 1 -> - contract_13_9 + contract_1_9 <= -2
 GC119: node_9_9 = 0 -> - contract_13_9 + contract_1_9 >= -1.9999
 GC120: node_9_10 = 1 -> - contract_13_10 + contract_1_10 <= -2
 GC121: node_9_10 = 0 -> - contract_13_10 + contract_1_10 >= -1.9999
 GC122: node_10_0 = 1 -> contract_13_0 - contract_1_0 <= -2
 GC123: node_10_0 = 0 -> contract_13_0 - contract_1_0 >= -1.9999
 GC124: node_10_1 = 1 -> contract_13_1 - contract_1_1 <= -2
 GC125: node_10_1 = 0 -> contract_13_1 - contract_1_1 >= -1.9999
 GC126: node_10_2 = 1 -> contract_13_2 - contract_1_2 <= -2
 GC127: node_10_2 = 0 -> contract_13_2 - contract_1_2 >= -1.9999
 GC128: node_10_3 = 1 -> contract_13_3 - contract_1_3 <= -2
 GC129: node_10_3 = 0 -> contract_13_3 - contract_1_3 >= -1.9999
 GC130: node_10_4 = 1 -> contract_13_4 - contract_1_4 <= -2
 GC131: node_10_4 = 0 -> contract_13_4 - contract_1_4 >= -1.9999
 GC132: node_10_5 = 1 -> contract_13_5 - contract_1_5 <= -2
 GC133: node_10_5 = 0 -> contract_13_5 - contract_1_5 >= -1.9999
 GC134: node_10_6 = 1 -> contract_13_6 - contract_1_6 <= -2
 GC135: node_10_6 = 0 -> contract_13_6 - contract_1_6 >= -1.9999
 GC136: node_10_7 = 1 -> contract_13_7 - contract_1_7 <= -2
 GC137: node_10_7 = 0 -> contract_13_7 - contract_1_7 >= -1.9999
 GC138: node_10_8 = 1 -> contract_13_8 - contract_1_8 <= -2
 GC139: node_10_8 = 0 -> contract_13_8 - contract_1_8 >= -1.9999
 GC140: node_10_9 = 1 -> contract_13_9 - contract_1_9 <= -2
 GC141: node_10_9 = 0 -> contract_13_9 - contract_1_9 >= -1.9999
 GC142: node_10_10 = 1 -> contract_13_10 - contract_1_10 <= -2
 GC143: node_10_10 = 0 -> contract_13_10 - contract_1_10 >= -1.9999
 GC144: node_11_0 = 1 -> - contract_14_0 + contract_2_0 <= -2
 GC145: node_11_0 = 0 -> - contract_14_0 + contract_2_0 >= -1.9999
 GC146: node_11_1 = 1 -> - contract_14_1 + contract_2_1 <= -2
 GC147: node_11_1 = 0 -> - contract_14_1 + contract_2_1 >= -1.9999
 GC148: node_11_2 = 1 -> - contract_14_2 + contract_2_2 <= -2
 GC149: node_11_2 = 0 -> - contract_14_2 + contract_2_2 >= -1.9999
 GC150: node_11_3 = 1 -> - contract_14_3 + contract_2_3 <= -2
 GC151: node_11_3 = 0 -> - contract_14_3 + contract_2_3 >= -1.9999
 GC152: node_11_4 = 1 -> - contract_14_4 + contract_2_4 <= -2
 GC153: node_11_4 = 0 -> - contract_14_4 + contract_2_4 >= -1.9999
 GC154: node_11_5 = 1 -> - contract_14_5 + contract_2_5 <= -2
 GC155: node_11_5 = 0 -> - contract_14_5 + contract_2_5 >= -1.9999
 GC156: node_11_6 = 1 -> - contract_14_6 + contract_2_6 <= -2
 GC157: node_11_6 = 0 -> - contract_14_6 + contract_2_6 >= -1.9999
 GC158: node_11_7 = 1 -> - contract_14_7 + contract_2_7 <= -2
 GC159: node_11_7 = 0 -> - contract_14_7 + contract_2_7 >= -1.9999
 GC160: node_11_8 = 1 -> - contract_14_8 + contract_2_8 <= -2
 GC161: node_11_8 = 0 -> - contract_14_8 + contract_2_8 >= -1.9999
 GC162: node_11_9 = 1 -> - contract_14_9 + contract_2_9 <= -2
 GC163: node_11_9 = 0 -> - contract_14_9 + contract_2_9 >= -1.9999
 GC164: node_11_10 = 1 -> - contract_14_10 + contract_2_10 <= -2
 GC165: node_11_10 = 0 -> - contract_14_10 + contract_2_10 >= -1.9999
 GC166: node_12_0 = 1 -> contract_14_0 - contract_2_0 <= -2
 GC167: node_12_0 = 0 -> contract_14_0 - contract_2_0 >= -1.9999
 GC168: node_12_1 = 1 -> contract_14_1 - contract_2_1 <= -2
 GC169: node_12_1 = 0 -> contract_14_1 - contract_2_1 >= -1.9999
 GC170: node_12_2 = 1 -> contract_14_2 - contract_2_2 <= -2
 GC171: node_12_2 = 0 -> contract_14_2 - contract_2_2 >= -1.9999
 GC172: node_12_3 = 1 -> contract_14_3 - contract_2_3 <= -2
 GC173: node_12_3 = 0 -> contract_14_3 - contract_2_3 >= -1.9999
 GC174: node_12_4 = 1 -> contract_14_4 - contract_2_4 <= -2
 GC175: node_12_4 = 0 -> contract_14_4 - contract_2_4 >= -1.9999
 GC176: node_12_5 = 1 -> contract_14_5 - contract_2_5 <= -2
 GC177: node_12_5 = 0 -> contract_14_5 - contract_2_5 >= -1.9999
 GC178: node_12_6 = 1 -> contract_14_6 - contract_2_6 <= -2
 GC179: node_12_6 = 0 -> contract_14_6 - contract_2_6 >= -1.9999
 GC180: node_12_7 = 1 -> contract_14_7 - contract_2_7 <= -2
 GC181: node_12_7 = 0 -> contract_14_7 - contract_2_7 >= -1.9999
 GC182: node_12_8 = 1 -> contract_14_8 - contract_2_8 <= -2
 GC183: node_12_8 = 0 -> contract_14_8 - contract_2_8 >= -1.9999
 GC184: node_12_9 = 1 -> contract_14_9 - contract_2_9 <= -2
 GC185: node_12_9 = 0 -> contract_14_9 - contract_2_9 >= -1.9999
 GC186: node_12_10 = 1 -> contract_14_10 - contract_2_10 <= -2
 GC187: node_12_10 = 0 -> contract_14_10 - contract_2_10 >= -1.9999
 GC200: node_15_0 = 1 -> - contract_13_0 + contract_7_0 <= -2
 GC201: node_15_0 = 0 -> - contract_13_0 + contract_7_0 >= -1.9999
 GC202: node_15_1 = 1 -> - contract_13_1 + contract_7_1 <= -2
 GC203: node_15_1 = 0 -> - contract_13_1 + contract_7_1 >= -1.9999
 GC204: node_15_2 = 1 -> - contract_13_2 + contract_7_2 <= -2
 GC205: node_15_2 = 0 -> - contract_13_2 + contract_7_2 >= -1.9999
 GC206: node_15_3 = 1 -> - contract_13_3 + contract_7_3 <= -2
 GC207: node_15_3 = 0 -> - contract_13_3 + contract_7_3 >= -1.9999
 GC208: node_15_4 = 1 -> - contract_13_4 + contract_7_4 <= -2
 GC209: node_15_4 = 0 -> - contract_13_4 + contract_7_4 >= -1.9999
 GC210: node_15_5 = 1 -> - contract_13_5 + contract_7_5 <= -2
 GC211: node_15_5 = 0 -> - contract_13_5 + contract_7_5 >= -1.9999
 GC212: node_15_6 = 1 -> - contract_13_6 + contract_7_6 <= -2
 GC213: node_15_6 = 0 -> - contract_13_6 + contract_7_6 >= -1.9999
 GC214: node_15_7 = 1 -> - contract_13_7 + contract_7_7 <= -2
 GC215: node_15_7 = 0 -> - contract_13_7 + contract_7_7 >= -1.9999
 GC216: node_15_8 = 1 -> - contract_13_8 + contract_7_8 <= -2
 GC217: node_15_8 = 0 -> - contract_13_8 + contract_7_8 >= -1.9999
 GC218: node_15_9 = 1 -> - contract_13_9 + contract_7_9 <= -2
 GC219: node_15_9 = 0 -> - contract_13_9 + contract_7_9 >= -1.9999
 GC220: node_15_10 = 1 -> - contract_13_10 + contract_7_10 <= -2
 GC221: node_15_10 = 0 -> - contract_13_10 + contract_7_10 >= -1.9999
 GC222: node_16_0 = 1 -> contract_13_0 - contract_7_0 <= -2
 GC223: node_16_0 = 0 -> contract_13_0 - contract_7_0 >= -1.9999
 GC224: node_16_1 = 1 -> contract_13_1 - contract_7_1 <= -2
 GC225: node_16_1 = 0 -> contract_13_1 - contract_7_1 >= -1.9999
 GC226: node_16_2 = 1 -> contract_13_2 - contract_7_2 <= -2
 GC227: node_16_2 = 0 -> contract_13_2 - contract_7_2 >= -1.9999
 GC228: node_16_3 = 1 -> contract_13_3 - contract_7_3 <= -2
 GC229: node_16_3 = 0 -> contract_13_3 - contract_7_3 >= -1.9999
 GC230: node_16_4 = 1 -> contract_13_4 - contract_7_4 <= -2
 GC231: node_16_4 = 0 -> contract_13_4 - contract_7_4 >= -1.9999
 GC232: node_16_5 = 1 -> contract_13_5 - contract_7_5 <= -2
 GC233: node_16_5 = 0 -> contract_13_5 - contract_7_5 >= -1.9999
 GC234: node_16_6 = 1 -> contract_13_6 - contract_7_6 <= -2
 GC235: node_16_6 = 0 -> contract_13_6 - contract_7_6 >= -1.9999
 GC236: node_16_7 = 1 -> contract_13_7 - contract_7_7 <= -2
 GC237: node_16_7 = 0 -> contract_13_7 - contract_7_7 >= -1.9999
 GC238: node_16_8 = 1 -> contract_13_8 - contract_7_8 <= -2
 GC239: node_16_8 = 0 -> contract_13_8 - contract_7_8 >= -1.9999
 GC240: node_16_9 = 1 -> contract_13_9 - contract_7_9 <= -2
 GC241: node_16_9 = 0 -> contract_13_9 - contract_7_9 >= -1.9999
 GC242: node_16_10 = 1 -> contract_13_10 - contract_7_10 <= -2
 GC243: node_16_10 = 0 -> contract_13_10 - contract_7_10 >= -1.9999
 GC244: node_17_0 = 1 -> - contract_14_0 + contract_8_0 <= -2
 GC245: node_17_0 = 0 -> - contract_14_0 + contract_8_0 >= -1.9999
 GC246: node_17_1 = 1 -> - contract_14_1 + contract_8_1 <= -2
 GC247: node_17_1 = 0 -> - contract_14_1 + contract_8_1 >= -1.9999
 GC248: node_17_2 = 1 -> - contract_14_2 + contract_8_2 <= -2
 GC249: node_17_2 = 0 -> - contract_14_2 + contract_8_2 >= -1.9999
 GC250: node_17_3 = 1 -> - contract_14_3 + contract_8_3 <= -2
 GC251: node_17_3 = 0 -> - contract_14_3 + contract_8_3 >= -1.9999
 GC252: node_17_4 = 1 -> - contract_14_4 + contract_8_4 <= -2
 GC253: node_17_4 = 0 -> - contract_14_4 + contract_8_4 >= -1.9999
 GC254: node_17_5 = 1 -> - contract_14_5 + contract_8_5 <= -2
 GC255: node_17_5 = 0 -> - contract_14_5 + contract_8_5 >= -1.9999
 GC256: node_17_6 = 1 -> - contract_14_6 + contract_8_6 <= -2
 GC257: node_17_6 = 0 -> - contract_14_6 + contract_8_6 >= -1.9999
 GC258: node_17_7 = 1 -> - contract_14_7 + contract_8_7 <= -2
 GC259: node_17_7 = 0 -> - contract_14_7 + contract_8_7 >= -1.9999
 GC260: node_17_8 = 1 -> - contract_14_8 + contract_8_8 <= -2
 GC261: node_17_8 = 0 -> - contract_14_8 + contract_8_8 >= -1.9999
 GC262: node_17_9 = 1 -> - contract_14_9 + contract_8_9 <= -2
 GC263: node_17_9 = 0 -> - contract_14_9 + contract_8_9 >= -1.9999
 GC264: node_17_10 = 1 -> - contract_14_10 + contract_8_10 <= -2
 GC265: node_17_10 = 0 -> - contract_14_10 + contract_8_10 >= -1.9999
 GC266: node_18_0 = 1 -> contract_14_0 - contract_8_0 <= -2
 GC267: node_18_0 = 0 -> contract_14_0 - contract_8_0 >= -1.9999
 GC268: node_18_1 = 1 -> contract_14_1 - contract_8_1 <= -2
 GC269: node_18_1 = 0 -> contract_14_1 - contract_8_1 >= -1.9999
 GC270: node_18_2 = 1 -> contract_14_2 - contract_8_2 <= -2
 GC271: node_18_2 = 0 -> contract_14_2 - contract_8_2 >= -1.9999
 GC272: node_18_3 = 1 -> contract_14_3 - contract_8_3 <= -2
 GC273: node_18_3 = 0 -> contract_14_3 - contract_8_3 >= -1.9999
 GC274: node_18_4 = 1 -> contract_14_4 - contract_8_4 <= -2
 GC275: node_18_4 = 0 -> contract_14_4 - contract_8_4 >= -1.9999
 GC276: node_18_5 = 1 -> contract_14_5 - contract_8_5 <= -2
 GC277: node_18_5 = 0 -> contract_14_5 - contract_8_5 >= -1.9999
 GC278: node_18_6 = 1 -> contract_14_6 - contract_8_6 <= -2
 GC279: node_18_6 = 0 -> contract_14_6 - contract_8_6 >= -1.9999
 GC280: node_18_7 = 1 -> contract_14_7 - contract_8_7 <= -2
 GC281: node_18_7 = 0 -> contract_14_7 - contract_8_7 >= -1.9999
 GC282: node_18_8 = 1 -> contract_14_8 - contract_8_8 <= -2
 GC283: node_18_8 = 0 -> contract_14_8 - contract_8_8 >= -1.9999
 GC284: node_18_9 = 1 -> contract_14_9 - contract_8_9 <= -2
 GC285: node_18_9 = 0 -> contract_14_9 - contract_8_9 >= -1.9999
 GC286: node_18_10 = 1 -> contract_14_10 - contract_8_10 <= -2
 GC287: node_18_10 = 0 -> contract_14_10 - contract_8_10 >= -1.9999
 GC301: node_20_0 = 1 -> contract_1_0 <= -0
 GC302: node_20_0 = 0 -> contract_1_0 >= 0.0001
 GC303: node_21_0 = 1 -> - contract_1_0 <= -0
 GC304: node_21_0 = 0 -> - contract_1_0 >= 0.0001
 GC306: node_23_0 = 1 -> contract_2_0 <= 8
 GC307: node_23_0 = 0 -> contract_2_0 >= 8.0001
 GC308: node_24_0 = 1 -> - contract_2_0 <= -8
 GC309: node_24_0 = 0 -> - contract_2_0 >= -7.9999
 GC311: node_26_0 = 1 -> contract_3_0 <= 10
 GC312: node_26_0 = 0 -> contract_3_0 >= 10.0001
 GC313: node_27_0 = 1 -> - contract_3_0 <= -10
 GC314: node_27_0 = 0 -> - contract_3_0 >= -9.9999
 GC316: node_29_0 = 1 -> contract_4_0 <= -0
 GC317: node_29_0 = 0 -> contract_4_0 >= 0.0001
 GC318: node_30_0 = 1 -> - contract_4_0 <= -0
 GC319: node_30_0 = 0 -> - contract_4_0 >= 0.0001
 GC321: node_32_0 = 1 -> contract_7_0 <= 50
 GC322: node_32_0 = 0 -> contract_7_0 >= 50.0001
 GC323: node_33_0 = 1 -> - contract_7_0 <= -50
 GC324: node_33_0 = 0 -> - contract_7_0 >= -49.9999
 GC326: node_35_0 = 1 -> contract_8_0 <= 8
 GC327: node_35_0 = 0 -> contract_8_0 >= 8.0001
 GC328: node_36_0 = 1 -> - contract_8_0 <= -8
 GC329: node_36_0 = 0 -> - contract_8_0 >= -7.9999
 GC331: node_38_0 = 1 -> contract_9_0 <= 10
 GC332: node_38_0 = 0 -> contract_9_0 >= 10.0001
 GC333: node_39_0 = 1 -> - contract_9_0 <= -10
 GC334: node_39_0 = 0 -> - contract_9_0 >= -9.9999
 GC336: node_41_0 = 1 -> contract_10_0 <= -0
 GC337: node_41_0 = 0 -> contract_10_0 >= 0.0001
 GC338: node_42_0 = 1 -> - contract_10_0 <= -0
 GC339: node_42_0 = 0 -> - contract_10_0 >= 0.0001
 GC341: node_44_0 = 1 -> contract_13_0 <= -0
 GC342: node_44_0 = 0 -> contract_13_0 >= 0.0001
 GC343: node_45_0 = 1 -> - contract_13_0 <= -0
 GC344: node_45_0 = 0 -> - contract_13_0 >= 0.0001
 GC346: node_47_0 = 1 -> contract_14_0 <= 12
 GC347: node_47_0 = 0 -> contract_14_0 >= 12.0001
 GC348: node_48_0 = 1 -> - contract_14_0 <= -12
 GC349: node_48_0 = 0 -> - contract_14_0 >= -11.9999
 GC351: node_50_0 = 1 -> contract_15_0 <= 10
 GC352: node_50_0 = 0 -> contract_15_0 >= 10.0001
 GC353: node_51_0 = 1 -> - contract_15_0 <= -10
 GC354: node_51_0 = 0 -> - contract_15_0 >= -9.9999
 GC356: node_53_0 = 1 -> contract_16_0 <= -0
 GC357: node_53_0 = 0 -> contract_16_0 >= 0.0001
 GC358: node_54_0 = 1 -> - contract_16_0 <= -0
 GC359: node_54_0 = 0 -> - contract_16_0 >= 0.0001
Bounds
 -10000 <= contract_13_0 <= 10000
 -10000 <= contract_13_1 <= 10000
 -10000 <= contract_13_2 <= 10000
 -10000 <= contract_13_3 <= 10000
 -10000 <= contract_13_4 <= 10000
 -10000 <= contract_13_5 <= 10000
 -10000 <= contract_13_6 <= 10000
 -10000 <= contract_13_7 <= 10000
 -10000 <= contract_13_8 <= 10000
 -10000 <= contract_13_9 <= 10000
 -10000 <= contract_13_10 <= 10000
 -10000 <= contract_14_0 <= 10000
 -10000 <= contract_14_1 <= 10000
 -10000 <= contract_14_2 <= 10000
 -10000 <= contract_14_3 <= 10000
 -10000 <= contract_14_4 <= 10000
 -10000 <= contract_14_5 <= 10000
 -10000 <= contract_14_6 <= 10000
 -10000 <= contract_14_7 <= 10000
 -10000 <= contract_14_8 <= 10000
 -10000 <= contract_14_9 <= 10000
 -10000 <= contract_14_10 <= 10000
 -10000 <= contract_1_0 <= 10000
 -10000 <= contract_1_1 <= 10000
 -10000 <= contract_1_2 <= 10000
 -10000 <= contract_1_3 <= 10000
 -10000 <= contract_1_4 <= 10000
 -10000 <= contract_1_5 <= 10000
 -10000 <= contract_1_6 <= 10000
 -10000 <= contract_1_7 <= 10000
 -10000 <= contract_1_8 <= 10000
 -10000 <= contract_1_9 <= 10000
 -10000 <= contract_1_10 <= 10000
 -10000 <= contract_2_0 <= 10000
 -10000 <= contract_2_1 <= 10000
 -10000 <= contract_2_2 <= 10000
 -10000 <= contract_2_3 <= 10000
 -10000 <= contract_2_4 <= 10000
 -10000 <= contract_2_5 <= 10000
 -10000 <= contract_2_6 <= 10000
 -10000 <= contract_2_7 <= 10000
 -10000 <= contract_2_8 <= 10000
 -10000 <= contract_2_9 <= 10000
 -10000 <= contract_2_10 <= 10000
 -10000 <= contract_7_0 <= 10000
 -10000 <= contract_7_1 <= 10000
 -10000 <= contract_7_2 <= 10000
 -10000 <= contract_7_3 <= 10000
 -10000 <= contract_7_4 <= 10000
 -10000 <= contract_7_5 <= 10000
 -10000 <= contract_7_6 <= 10000
 -10000 <= contract_7_7 <= 10000
 -10000 <= contract_7_8 <= 10000
 -10000 <= contract_7_9 <= 10000
 -10000 <= contract_7_10 <= 10000
 -10000 <= contract_8_0 <= 10000
 -10000 <= contract_8_1 <= 10000
 -10000 <= contract_8_2 <= 10000
 -10000 <= contract_8_3 <= 10000
 -10000 <= contract_8_4 <= 10000
 -10000 <= contract_8_5 <= 10000
 -10000 <= contract_8_6 <= 10000
 -10000 <= contract_8_7 <= 10000
 -10000 <= contract_8_8 <= 10000
 -10000 <= contract_8_9 <= 10000
 -10000 <= contract_8_10 <= 10000
 -30 <= contract_3_0 <= 30
 -30 <= contract_4_0 <= 30
 -30 <= contract_9_0 <= 30
 -30 <= contract_10_0 <= 30
 -30 <= contract_15_0 <= 30
 -30 <= contract_16_0 <= 30
 -30 <= contract_3_1 <= 30
 -30 <= contract_3_2 <= 30
 -30 <= contract_3_3 <= 30
 -30 <= contract_3_4 <= 30
 -30 <= contract_3_5 <= 30
 -30 <= contract_3_6 <= 30
 -30 <= contract_3_7 <= 30
 -30 <= contract_3_8 <= 30
 -30 <= contract_3_9 <= 30
 -30 <= contract_4_1 <= 30
 -30 <= contract_4_2 <= 30
 -30 <= contract_4_3 <= 30
 -30 <= contract_4_4 <= 30
 -30 <= contract_4_5 <= 30
 -30 <= contract_4_6 <= 30
 -30 <= contract_4_7 <= 30
 -30 <= contract_4_8 <= 30
 -30 <= contract_4_9 <= 30
 -10 <= contract_5_0 <= 10
 -10 <= contract_5_1 <= 10
 -10 <= contract_5_2 <= 10
 -10 <= contract_5_3 <= 10
 -10 <= contract_5_4 <= 10
 -10 <= contract_5_5 <= 10
 -10 <= contract_5_6 <= 10
 -10 <= contract_5_7 <= 10
 -10 <= contract_5_8 <= 10
 -30 <= contract_3_10 <= 30
 -10 <= contract_5_9 <= 10
 -10 <= contract_6_0 <= 10
 -10 <= contract_6_1 <= 10
 -10 <= contract_6_2 <= 10
 -10 <= contract_6_3 <= 10
 -10 <= contract_6_4 <= 10
 -10 <= contract_6_5 <= 10
 -10 <= contract_6_6 <= 10
 -10 <= contract_6_7 <= 10
 -10 <= contract_6_8 <= 10
 -30 <= contract_4_10 <= 30
 -10 <= contract_6_9 <= 10
 -30 <= contract_9_1 <= 30
 -30 <= contract_9_2 <= 30
 -30 <= contract_9_3 <= 30
 -30 <= contract_9_4 <= 30
 -30 <= contract_9_5 <= 30
 -30 <= contract_9_6 <= 30
 -30 <= contract_9_7 <= 30
 -30 <= contract_9_8 <= 30
 -30 <= contract_9_9 <= 30
 -30 <= contract_10_1 <= 30
 -30 <= contract_10_2 <= 30
 -30 <= contract_10_3 <= 30
 -30 <= contract_10_4 <= 30
 -30 <= contract_10_5 <= 30
 -30 <= contract_10_6 <= 30
 -30 <= contract_10_7 <= 30
 -30 <= contract_10_8 <= 30
 -30 <= contract_10_9 <= 30
 -10 <= contract_11_0 <= 10
 -10 <= contract_11_1 <= 10
 -10 <= contract_11_2 <= 10
 -10 <= contract_11_3 <= 10
 -10 <= contract_11_4 <= 10
 -10 <= contract_11_5 <= 10
 -10 <= contract_11_6 <= 10
 -10 <= contract_11_7 <= 10
 -10 <= contract_11_8 <= 10
 -30 <= contract_9_10 <= 30
 -10 <= contract_11_9 <= 10
 -10 <= contract_12_0 <= 10
 -10 <= contract_12_1 <= 10
 -10 <= contract_12_2 <= 10
 -10 <= contract_12_3 <= 10
 -10 <= contract_12_4 <= 10
 -10 <= contract_12_5 <= 10
 -10 <= contract_12_6 <= 10
 -10 <= contract_12_7 <= 10
 -10 <= contract_12_8 <= 10
 -30 <= contract_10_10 <= 30
 -10 <= contract_12_9 <= 10
 -30 <= contract_15_1 <= 30
 -30 <= contract_15_2 <= 30
 -30 <= contract_15_3 <= 30
 -30 <= contract_15_4 <= 30
 -30 <= contract_15_5 <= 30
 -30 <= contract_15_6 <= 30
 -30 <= contract_15_7 <= 30
 -30 <= contract_15_8 <= 30
 -30 <= contract_15_9 <= 30
 -30 <= contract_16_1 <= 30
 -30 <= contract_16_2 <= 30
 -30 <= contract_16_3 <= 30
 -30 <= contract_16_4 <= 30
 -30 <= contract_16_5 <= 30
 -30 <= contract_16_6 <= 30
 -30 <= contract_16_7 <= 30
 -30 <= contract_16_8 <= 30
 -30 <= contract_16_9 <= 30
 -10 <= contract_17_0 <= 10
 -10 <= contract_17_1 <= 10
 -10 <= contract_17_2 <= 10
 -10 <= contract_17_3 <= 10
 -10 <= contract_17_4 <= 10
 -10 <= contract_17_5 <= 10
 -10 <= contract_17_6 <= 10
 -10 <= contract_17_7 <= 10
 -10 <= contract_17_8 <= 10
 -30 <= contract_15_10 <= 30
 -10 <= contract_17_9 <= 10
 -10 <= contract_18_0 <= 10
 -10 <= contract_18_1 <= 10
 -10 <= contract_18_2 <= 10
 -10 <= contract_18_3 <= 10
 -10 <= contract_18_4 <= 10
 -10 <= contract_18_5 <= 10
 -10 <= contract_18_6 <= 10
 -10 <= contract_18_7 <= 10
 -10 <= contract_18_8 <= 10
 -30 <= contract_16_10 <= 30
 -10 <= contract_18_9 <= 10
Binaries
 node_0_0 node_1_0 node_2_0 node_2_1 node_2_2 node_2_3 node_2_4 node_2_5
 node_2_6 node_2_7 node_2_8 node_2_9 node_2_10 node_3_0 node_3_1 node_3_2
 node_3_3 node_3_4 node_3_5 node_3_6 node_3_7 node_3_8 node_3_9 node_3_10
 node_4_0 node_4_1 node_4_2 node_4_3 node_4_4 node_4_5 node_4_6 node_4_7
 node_4_8 node_4_9 node_4_10 node_5_0 node_5_1 node_5_2 node_5_3 node_5_4
 node_5_5 node_5_6 node_5_7 node_5_8 node_5_9 node_5_10 node_6_0 node_6_1
 node_6_2 node_6_3 node_6_4 node_6_5 node_6_6 node_6_7 node_6_8 node_6_9
 node_6_10 node_7_0 node_8_0 node_8_1 node_8_2 node_8_3 node_8_4 node_8_5
 node_8_6 node_8_7 node_8_8 node_8_9 node_8_10 node_9_0 node_9_1 node_9_2
 node_9_3 node_9_4 node_9_5 node_9_6 node_9_7 node_9_8 node_9_9 node_9_10
 node_10_0 node_10_1 node_10_2 node_10_3 node_10_4 node_10_5 node_10_6
 node_10_7 node_10_8 node_10_9 node_10_10 node_11_0 node_11_1 node_11_2
 node_11_3 node_11_4 node_11_5 node_11_6 node_11_7 node_11_8 node_11_9
 node_11_10 node_12_0 node_12_1 node_12_2 node_12_3 node_12_4 node_12_5
 node_12_6 node_12_7 node_12_8 node_12_9 node_12_10 node_13_0 node_14_0
 node_14_1 node_14_2 node_14_3 node_14_4 node_14_5 node_14_6 node_14_7
 node_14_8 node_14_9 node_14_10 node_15_0 node_15_1 node_15_2 node_15_3
 node_15_4 node_15_5 node_15_6 node_15_7 node_15_8 node_15_9 node_15_10
 node_16_0 node_16_1 node_16_2 node_16_3 node_16_4 node_16_5 node_16_6
 node_16_7 node_16_8 node_16_9 node_16_10 node_17_0 node_17_1 node_17_2
 node_17_3 node_17_4 node_17_5 node_17_6 node_17_7 node_17_8 node_17_9
 node_17_10 node_18_0 node_18_1 node_18_2 node_18_3 node_18_4 node_18_5
 node_18_6 node_18_7 node_18_8 node_18_9 node_18_10 node_19_0 node_20_0
 node_21_0 node_22_0 node_23_0 node_24_0 node_25_0 node_26_0 node_27_0
 node_28_0 node_29_0 node_30_0 node_31_0 node_32_0 node_33_0 node_34_0
 node_35_0 node_36_0 node_37_0 node_38_0 node_39_0 node_40_0 node_41_0
 node_42_0 node_43_0 node_44_0 node_45_0 node_46_0 node_47_0 node_48_0
 node_49_0 node_50_0 node_51_0 node_52_0 node_53_0 node_54_0
General Constraints
 GC88: node_2_0 = AND ( node_3_0 , node_4_0 , node_5_0 , node_6_0 )
 GC89: node_2_1 = AND ( node_3_1 , node_4_1 , node_5_1 , node_6_1 )
 GC90: node_2_2 = AND ( node_3_2 , node_4_2 , node_5_2 , node_6_2 )
 GC91: node_2_3 = AND ( node_3_3 , node_4_3 , node_5_3 , node_6_3 )
 GC92: node_2_4 = AND ( node_3_4 , node_4_4 , node_5_4 , node_6_4 )
 GC93: node_2_5 = AND ( node_3_5 , node_4_5 , node_5_5 , node_6_5 )
 GC94: node_2_6 = AND ( node_3_6 , node_4_6 , node_5_6 , node_6_6 )
 GC95: node_2_7 = AND ( node_3_7 , node_4_7 , node_5_7 , node_6_7 )
 GC96: node_2_8 = AND ( node_3_8 , node_4_8 , node_5_8 , node_6_8 )
 GC97: node_2_9 = AND ( node_3_9 , node_4_9 , node_5_9 , node_6_9 )
 GC98: node_2_10 = AND ( node_3_10 , node_4_10 , node_5_10 , node_6_10 )
 GC99: node_1_0 = OR ( node_2_0 , node_2_1 , node_2_2 , node_2_3 ,
   node_2_4 , node_2_5 , node_2_6 , node_2_7 , node_2_8 , node_2_9 ,
   node_2_10 )
 GC188: node_8_0 = OR ( node_9_0 , node_10_0 , node_11_0 , node_12_0 )
 GC189: node_8_1 = OR ( node_9_1 , node_10_1 , node_11_1 , node_12_1 )
 GC190: node_8_2 = OR ( node_9_2 , node_10_2 , node_11_2 , node_12_2 )
 GC191: node_8_3 = OR ( node_9_3 , node_10_3 , node_11_3 , node_12_3 )
 GC192: node_8_4 = OR ( node_9_4 , node_10_4 , node_11_4 , node_12_4 )
 GC193: node_8_5 = OR ( node_9_5 , node_10_5 , node_11_5 , node_12_5 )
 GC194: node_8_6 = OR ( node_9_6 , node_10_6 , node_11_6 , node_12_6 )
 GC195: node_8_7 = OR ( node_9_7 , node_10_7 , node_11_7 , node_12_7 )
 GC196: node_8_8 = OR ( node_9_8 , node_10_8 , node_11_8 , node_12_8 )
 GC197: node_8_9 = OR ( node_9_9 , node_10_9 , node_11_9 , node_12_9 )
 GC198: node_8_10 = OR ( node_9_10 , node_10_10 , node_11_10 , node_12_10 )
 GC199: node_7_0 = AND ( node_8_0 , node_8_1 , node_8_2 , node_8_3 ,
   node_8_4 , node_8_5 , node_8_6 , node_8_7 , node_8_8 , node_8_9 ,
   node_8_10 )
 GC288: node_14_0 = OR ( node_15_0 , node_16_0 , node_17_0 , node_18_0 )
 GC289: node_14_1 = OR ( node_15_1 , node_16_1 , node_17_1 , node_18_1 )
 GC290: node_14_2 = OR ( node_15_2 , node_16_2 , node_17_2 , node_18_2 )
 GC291: node_14_3 = OR ( node_15_3 , node_16_3 , node_17_3 , node_18_3 )
 GC292: node_14_4 = OR ( node_15_4 , node_16_4 , node_17_4 , node_18_4 )
 GC293: node_14_5 = OR ( node_15_5 , node_16_5 , node_17_5 , node_18_5 )
 GC294: node_14_6 = OR ( node_15_6 , node_16_6 , node_17_6 , node_18_6 )
 GC295: node_14_7 = OR ( node_15_7 , node_16_7 , node_17_7 , node_18_7 )
 GC296: node_14_8 = OR ( node_15_8 , node_16_8 , node_17_8 , node_18_8 )
 GC297: node_14_9 = OR ( node_15_9 , node_16_9 , node_17_9 , node_18_9 )
 GC298: node_14_10 = OR ( node_15_10 , node_16_10 , node_17_10 , node_18_10 )
 GC299: node_13_0 = AND ( node_14_0 , node_14_1 , node_14_2 , node_14_3 ,
   node_14_4 , node_14_5 , node_14_6 , node_14_7 , node_14_8 , node_14_9 ,
   node_14_10 )
 GC300: node_0_0 = AND ( node_1_0 , node_7_0 , node_13_0 )
 GC305: node_19_0 = AND ( node_20_0 , node_21_0 )
 GC310: node_22_0 = AND ( node_23_0 , node_24_0 )
 GC315: node_25_0 = AND ( node_26_0 , node_27_0 )
 GC320: node_28_0 = AND ( node_29_0 , node_30_0 )
 GC325: node_31_0 = AND ( node_32_0 , node_33_0 )
 GC330: node_34_0 = AND ( node_35_0 , node_36_0 )
 GC335: node_37_0 = AND ( node_38_0 , node_39_0 )
 GC340: node_40_0 = AND ( node_41_0 , node_42_0 )
 GC345: node_43_0 = AND ( node_44_0 , node_45_0 )
 GC350: node_46_0 = AND ( node_47_0 , node_48_0 )
 GC355: node_49_0 = AND ( node_50_0 , node_51_0 )
 GC360: node_52_0 = AND ( node_53_0 , node_54_0 )
End
